11700
6446 16
5776 16
4700 10
1313 56
2694 24
1872 16
2270 9
2579 36
1106 9
2460 9
1670 18
1760 9
2710 12
3105 8
3295 2
3485 2
8120 6
3450 6
2690 6
2900 6
550 18
4500 20
2750 5
700 28
1600 4